c instance by G2
c solution = 0001001000011000001
c Known solution cost is 1061 
p cnf 19 30
w 90 80 78 55 72 10 2 79 38 51 80 43 95 85 35 47 98 16 7
16 -6 -4 0
-9 17 -10 0
3 -6 12 0
-16 -19 -7 0
-6 18 13 0
-8 3 -13 0
11 -16 -9 0
1 -10 9 0
18 2 -15 0
19 16 12 0
17 -11 16 0
15 -7 -17 0
2 -9 -7 0
-5 11 6 0
15 -13 7 0
9 11 19 0
-5 -16 11 0
-12 -10 -19 0
18 -14 9 0
-4 -2 -7 0
-4 12 1 0
17 11 -1 0
-12 13 9 0
11 -19 -14 0
3 -17 -12 0
4 14 -19 0
-3 -19 15 0
-8 -3 18 0
-18 8 -13 0
-2 1 17 0
